p tw 26 39
1 5
1 13
1 20
2 7
2 11
2 26
3 7
3 23
3 25
4 8
4 11
4 15
5 12
5 17
6 12
6 19
6 20
7 8
8 13
9 16
9 18
9 21
10 15
10 18
10 26
11 24
12 22
13 15
14 19
14 23
14 24
16 19
16 23
17 22
17 24
18 25
20 21
21 26
22 25
